(declare-fun var0 () String)
(declare-fun var1 () String)
(declare-fun var2 () String)
(declare-fun var3 () String)
(declare-fun var4 () String)
(declare-fun var5 () String)
(declare-fun var6 () String)
(declare-fun var7 () String)
(declare-fun var8 () String)
(declare-fun var9 () String)
(declare-fun var10 () String)
(declare-fun var11 () String)
(declare-fun var12 () String)
(declare-fun var13 () String)
(declare-fun var14 () String)
(declare-fun var15 () String)
(declare-fun var16 () String)
(declare-fun var17 () String)
(declare-fun var18 () String)
(declare-fun var19 () String)
(declare-fun var20 () String)
(declare-fun var21 () String)
(declare-fun var22 () String)
(declare-fun var23 () String)
(declare-fun var24 () String)
(declare-fun var25 () String)
(declare-fun var26 () String)
(declare-fun var27 () String)
(declare-fun var28 () String)
(declare-fun var29 () String)
(declare-fun var30 () String)
(declare-fun var31 () String)
(declare-fun var32 () String)
(declare-fun var33 () String)
(declare-fun var34 () String)
(declare-fun var35 () String)
(declare-fun var36 () String)
(declare-fun var37 () String)
(declare-fun var38 () String)
(declare-fun var39 () String)
(declare-fun var40 () String)
(declare-fun var41 () String)
(declare-fun var42 () String)
(declare-fun var43 () String)
(declare-fun var44 () String)
(declare-fun var45 () String)
(declare-fun var46 () String)
(declare-fun var47 () String)
(declare-fun var48 () String)
(declare-fun var49 () String)
(declare-fun var50 () String)
(declare-fun var51 () String)
(declare-fun var52 () String)
(declare-fun var53 () String)
(declare-fun var54 () String)
(declare-fun var55 () String)
(declare-fun var56 () String)
(declare-fun var57 () String)
(declare-fun var58 () String)
(declare-fun var59 () String)
(declare-fun var60 () String)
(assert (= var0 (Concat var1 var2)))
(assert (= var2 (Concat var3 var4)))
(assert (= var4 (Concat var5 var6)))
(assert (= var6 (Concat var7 var8)))
(assert (= var8 (Concat var9 var10)))
(assert (= var10 (Concat var11 var12)))
(assert (= var12 (Concat var13 var14)))
(assert (= var14 (Concat var15 var16)))
(assert (= var16 (Concat var17 var18)))
(assert (= var18 (Concat var19 var20)))
(assert (= var20 (Concat var21 var22)))
(assert (= var22 (Concat var23 var24)))
(assert (= var24 (Concat var25 var26)))
(assert (= var26 (Concat var27 var28)))
(assert (= var28 (Concat var29 var30)))
(assert (= var30 (Concat var31 var32)))
(assert (= var32 (Concat var33 var34)))
(assert (= var34 (Concat var35 var36)))
(assert (= var36 (Concat var37 var38)))
(assert (= var38 (Concat var39 var40)))
(assert (= var40 (Concat var41 var42)))
(assert (= var42 (Concat var43 var44)))
(assert (= var44 (Concat var45 var46)))
(assert (= var46 (Concat var47 var48)))
(assert (= var48 (Concat var49 var50)))
(assert (= var50 (Concat var51 var52)))
(assert (= var52 (Concat var53 var54)))
(assert (= var54 (Concat var55 var56)))
(assert (= var56 (Concat var57 var58)))
(assert (= var58 (Concat var59 var60)))
(assert (= var0 "solution"))
(assert (= "2" (CharAt var54 1)))
(assert (= "V" (CharAt var23 687)))
(assert (= "w" (CharAt var45 862)))
(assert (= "B" (CharAt var10 177)))
(assert (= "I" (CharAt var48 144)))
(assert (= "Y" (CharAt var34 477)))
(assert (= "/" (CharAt var48 449)))
(assert (= "z" (CharAt var6 595)))
(assert (= "b" (CharAt var8 17)))
(assert (= "8" (CharAt var39 552)))
(assert (= "l" (CharAt var0 19)))
(assert (= "I" (CharAt var38 46)))
(assert (= "B" (CharAt var17 315)))
(assert (= "0" (CharAt var24 610)))
(assert (= "M" (CharAt var33 528)))
(assert (= "G" (CharAt var16 925)))
(assert (= "_" (CharAt var23 952)))
(assert (= "I" (CharAt var23 892)))
(assert (= "T" (CharAt var39 78)))
(assert (= "9" (CharAt var21 349)))
(assert (= "m" (CharAt var6 321)))
(assert (= "8" (CharAt var37 998)))
(assert (= "~" (CharAt var25 677)))
(assert (= "?" (CharAt var12 543)))
(assert (= "I" (CharAt var7 699)))
(assert (= "L" (CharAt var59 29)))
(assert (= "r" (CharAt var6 480)))
(assert (= "g" (CharAt var52 190)))
(assert (= "E" (CharAt var49 280)))
(assert (= "J" (CharAt var29 993)))
(assert (= "~" (CharAt var59 222)))
(assert (= "o" (CharAt var28 291)))
(assert (= "G" (CharAt var38 437)))
(assert (= "9" (CharAt var50 0)))
(assert (= "H" (CharAt var4 393)))
(assert (= "s" (CharAt var39 512)))
(assert (= "M" (CharAt var5 771)))
(assert (= "8" (CharAt var54 91)))
(assert (= "E" (CharAt var16 647)))
(assert (= "F" (CharAt var28 157)))
(assert (= "U" (CharAt var27 878)))
(assert (= "~" (CharAt var6 391)))
(assert (= "B" (CharAt var54 888)))
(assert (= "o" (CharAt var52 762)))
(assert (= "^" (CharAt var2 886)))
(assert (= "V" (CharAt var60 579)))
(assert (= "8" (CharAt var4 411)))
(assert (= "0" (CharAt var43 963)))
(assert (= "k" (CharAt var12 675)))
(assert (= "S" (CharAt var21 418)))
(assert (= "1" (CharAt var56 939)))
(assert (= "m" (CharAt var38 38)))
(assert (= "(" (CharAt var37 465)))
(assert (= "S" (CharAt var49 812)))
(assert (= "Y" (CharAt var30 926)))
(assert (= "6" (CharAt var34 596)))
(assert (= "M" (CharAt var12 582)))
(assert (= "i" (CharAt var51 518)))
(assert (= "7" (CharAt var53 629)))
(assert (= "'" (CharAt var5 864)))
(assert (= "]" (CharAt var60 4)))
(assert (= "D" (CharAt var19 145)))
(assert (= "w" (CharAt var34 847)))
(assert (= "d" (CharAt var40 331)))
(assert (= "(" (CharAt var55 36)))
(assert (= "\"" (CharAt var25 481)))
(assert (= "L" (CharAt var6 62)))
(assert (= ":" (CharAt var48 525)))
(assert (= "p" (CharAt var46 953)))
(assert (= "g" (CharAt var52 654)))
(assert (= "9" (CharAt var11 7)))
(assert (= "b" (CharAt var7 215)))
(assert (= "V" (CharAt var4 435)))
(assert (= "|" (CharAt var7 565)))
(assert (= "=" (CharAt var23 463)))
(assert (= "!" (CharAt var46 525)))
(assert (= "L" (CharAt var18 667)))
(assert (= "%" (CharAt var49 411)))
(assert (= "?" (CharAt var30 148)))
(assert (= "o" (CharAt var30 390)))
(assert (= "6" (CharAt var12 415)))
(assert (= "@" (CharAt var9 296)))
(assert (= "U" (CharAt var38 900)))
(assert (= "z" (CharAt var4 455)))
(assert (= "+" (CharAt var36 903)))
(assert (= "V" (CharAt var2 959)))
(assert (= "~" (CharAt var31 944)))
(assert (= "i" (CharAt var39 507)))
(assert (= "/" (CharAt var48 425)))
(assert (= "#" (CharAt var38 923)))
(assert (= "L" (CharAt var38 513)))
(assert (= "U" (CharAt var14 66)))
(assert (= "&" (CharAt var30 280)))
(assert (= "b" (CharAt var37 214)))
(assert (= "k" (CharAt var6 613)))
(assert (= "W" (CharAt var41 530)))
(assert (= "3" (CharAt var19 772)))
(assert (= "Z" (CharAt var8 386)))
(assert (= "l" (CharAt var21 736)))
(assert (= "`" (CharAt var4 711)))
(assert (= "-" (CharAt var0 889)))
(assert (= "j" (CharAt var1 910)))
(assert (= "q" (CharAt var55 535)))
(assert (= "W" (CharAt var10 213)))
(assert (= "b" (CharAt var9 924)))
(assert (= "6" (CharAt var30 898)))
(assert (= "Z" (CharAt var52 13)))
(assert (= "Z" (CharAt var14 318)))
(assert (= "&" (CharAt var20 345)))
(assert (= "}" (CharAt var49 322)))
(assert (= "O" (CharAt var8 464)))
(assert (= "%" (CharAt var30 563)))
(assert (= "U" (CharAt var55 797)))
(assert (= "Q" (CharAt var19 988)))
(assert (= "q" (CharAt var13 177)))
(assert (= "i" (CharAt var45 692)))
(assert (= "j" (CharAt var37 370)))
(assert (= ":" (CharAt var31 956)))
(assert (= "S" (CharAt var58 20)))
(assert (= ":" (CharAt var12 929)))
(assert (= "%" (CharAt var2 597)))
(assert (= "t" (CharAt var54 735)))
(assert (= "8" (CharAt var53 699)))
(assert (= "l" (CharAt var47 249)))
(assert (= "5" (CharAt var26 725)))
(assert (= "q" (CharAt var19 262)))
(assert (= "F" (CharAt var14 509)))
(assert (= "g" (CharAt var42 550)))
(assert (= "x" (CharAt var44 867)))
(assert (= ";" (CharAt var57 825)))
(assert (= ";" (CharAt var5 384)))
(assert (= "=" (CharAt var42 622)))
(assert (= "J" (CharAt var4 566)))
(assert (= "B" (CharAt var0 971)))
(assert (= "." (CharAt var59 829)))
(assert (= "(" (CharAt var29 853)))
(assert (= "(" (CharAt var34 827)))
(assert (= "@" (CharAt var36 284)))
(assert (= "e" (CharAt var48 234)))
(assert (= "W" (CharAt var38 454)))
(assert (= "J" (CharAt var37 620)))
(assert (= "j" (CharAt var56 435)))
(assert (= "5" (CharAt var46 672)))
(assert (= "R" (CharAt var28 355)))
(assert (= "T" (CharAt var12 606)))
(assert (= "N" (CharAt var11 581)))
(assert (= "m" (CharAt var3 107)))
(assert (= "h" (CharAt var28 578)))
(assert (= "~" (CharAt var50 785)))
(assert (= "%" (CharAt var11 903)))
(assert (= "6" (CharAt var52 378)))
(assert (= "(" (CharAt var41 28)))
(assert (= "b" (CharAt var58 445)))
(assert (= "i" (CharAt var28 707)))
(assert (= "@" (CharAt var35 290)))
(assert (= "X" (CharAt var60 699)))
(assert (= "&" (CharAt var16 870)))
(assert (= "}" (CharAt var59 157)))
(assert (= "P" (CharAt var60 610)))
(assert (= "d" (CharAt var52 950)))
(assert (= "6" (CharAt var27 551)))
(assert (= "^" (CharAt var40 723)))
(assert (= "\"" (CharAt var26 316)))
(assert (= "p" (CharAt var58 935)))
(assert (= "i" (CharAt var35 309)))
(assert (= "," (CharAt var6 702)))
(assert (= ":" (CharAt var0 883)))
(assert (= "R" (CharAt var48 638)))
(assert (= "5" (CharAt var45 456)))
(assert (= "T" (CharAt var42 131)))
(assert (= "k" (CharAt var15 891)))
(assert (= "Z" (CharAt var27 309)))
(assert (= "U" (CharAt var19 94)))
(assert (= "6" (CharAt var43 397)))
(assert (= "{" (CharAt var46 170)))
(assert (= "_" (CharAt var5 378)))
(assert (= "A" (CharAt var47 82)))
(assert (= "F" (CharAt var59 462)))
(assert (= "D" (CharAt var39 618)))
(assert (= "$" (CharAt var46 371)))
(assert (= "~" (CharAt var24 756)))
(assert (= "z" (CharAt var0 123)))
(assert (= "S" (CharAt var7 951)))
(assert (= "j" (CharAt var41 657)))
(assert (= "s" (CharAt var33 49)))
(assert (= "]" (CharAt var28 866)))
(assert (= "n" (CharAt var7 637)))
(assert (= "$" (CharAt var36 6)))
(assert (= "\\" (CharAt var34 123)))
(assert (= "k" (CharAt var30 260)))
(assert (= "K" (CharAt var60 465)))
(assert (= "3" (CharAt var26 920)))
(assert (= "/" (CharAt var30 265)))
(assert (= "#" (CharAt var32 616)))
(assert (= "]" (CharAt var55 954)))
(assert (= "M" (CharAt var33 238)))
(assert (= "j" (CharAt var21 767)))
(assert (= "i" (CharAt var2 421)))
(assert (= "1" (CharAt var37 650)))
(assert (= "r" (CharAt var42 222)))
(assert (= "I" (CharAt var13 214)))
(assert (= "1" (CharAt var12 434)))
(assert (= "r" (CharAt var3 428)))
(assert (= "\\" (CharAt var2 845)))
(assert (= "S" (CharAt var16 975)))
(assert (= "E" (CharAt var3 101)))
(assert (= "g" (CharAt var6 728)))
(assert (= "|" (CharAt var21 167)))
(assert (= "C" (CharAt var57 224)))
(assert (= "\\" (CharAt var6 96)))
(assert (= "H" (CharAt var26 149)))
(assert (= ")" (CharAt var59 648)))
(assert (= "F" (CharAt var5 823)))
(assert (= "K" (CharAt var6 575)))
(assert (= "]" (CharAt var58 223)))
(assert (= "c" (CharAt var21 553)))
(assert (= "G" (CharAt var32 591)))
(assert (= "F" (CharAt var0 975)))
(assert (= "Y" (CharAt var27 733)))
(assert (= "m" (CharAt var53 274)))
(assert (= "n" (CharAt var24 380)))
(assert (= "-" (CharAt var11 983)))
(assert (= "w" (CharAt var11 194)))
(assert (= "W" (CharAt var24 493)))
(assert (= "l" (CharAt var34 383)))
(assert (= "m" (CharAt var6 764)))
(assert (= "j" (CharAt var10 186)))
(assert (= "\"" (CharAt var59 866)))
(assert (= "=" (CharAt var15 212)))
(assert (= "2" (CharAt var29 290)))
(assert (= "=" (CharAt var54 581)))
(assert (= "T" (CharAt var12 520)))
(assert (= "Q" (CharAt var46 278)))
(assert (= "e" (CharAt var13 175)))
(assert (= "<" (CharAt var23 966)))
(assert (= "}" (CharAt var1 456)))
(assert (= "A" (CharAt var50 963)))
(assert (= "c" (CharAt var43 892)))
(assert (= "=" (CharAt var34 881)))
(assert (= "E" (CharAt var40 663)))
(assert (= "v" (CharAt var23 152)))
(check-sat)